NAME           NO_TITLE
ROWS
 N  1
 E  3
 E  4
 G  5
 G  6
 G  7
 G  8
 G  9
 G  10
 L  11
 G  12
 E  14
 E  15
 G  16
 G  17
 G  18
 G  19
 G  20
 G  21
 L  22
 G  23
 E  25
 E  26
 G  27
 G  28
 G  29
 G  30
 G  31
 G  32
 L  33
 G  34
 E  36
 E  37
 G  38
 G  39
 G  40
 G  41
 G  42
 G  43
 L  44
 G  45
 G  49
 G  50
 G  51
 G  52
 G  53
 G  54
 L  55
 G  56
 E  58
 E  59
 G  60
 G  61
 G  62
 G  63
 G  64
 G  65
 L  66
 G  67
 E  69
 E  70
 G  71
 G  72
 G  73
 G  74
 G  75
 G  76
 L  77
 G  78
 G  81
COLUMNS
    X(1,1)  1  0
    X(1,2)  1  996
    X(1,2)  3  1
    X(1,2)  11  12
    X(1,2)  81  1
    X(1,3)  1  2162
    X(1,3)  14  1
    X(1,3)  22  15
    X(1,3)  81  1
    X(1,4)  1  1067
    X(1,4)  25  1
    X(1,4)  33  11
    X(1,4)  81  1
    X(1,5)  1  499
    X(1,5)  36  1
    X(1,5)  44  11
    X(1,5)  81  1
    X(1,7)  1  2134
    X(1,7)  58  1
    X(1,7)  66  14
    X(1,7)  81  1
    X(1,8)  1  2050
    X(1,8)  69  1
    X(1,8)  77  13
    X(1,8)  81  1
    X(2,1)  4  1
    X(2,3)  1  1167
    X(2,3)  4  1
    X(2,3)  5  -9
    X(2,3)  14  1
    X(2,3)  16  -18
    X(2,3)  23  -6
    X(2,4)  1  1019
    X(2,4)  4  1
    X(2,4)  6  -5
    X(2,4)  25  1
    X(2,4)  27  -18
    X(2,4)  34  -6
    X(2,5)  1  596
    X(2,5)  4  1
    X(2,5)  7  -5
    X(2,5)  36  1
    X(2,5)  38  -18
    X(2,5)  45  -6
    X(2,6)  1  1059
    X(2,6)  8  6
    X(2,6)  49  -18
    X(2,6)  56  -6
    X(2,7)  1  1227
    X(2,7)  4  1
    X(2,7)  9  -8
    X(2,7)  58  1
    X(2,7)  60  -18
    X(2,7)  67  -6
    X(2,8)  1  1055
    X(2,8)  4  1
    X(2,8)  10  -7
    X(2,8)  69  1
    X(2,8)  71  -18
    X(2,8)  78  -6
    X(3,1)  15  1
    X(3,2)  1  1167
    X(3,2)  3  1
    X(3,2)  5  -18
    X(3,2)  12  -3
    X(3,2)  15  1
    X(3,2)  16  -9
    X(3,4)  1  1747
    X(3,4)  15  1
    X(3,4)  17  -8
    X(3,4)  25  1
    X(3,4)  28  -18
    X(3,4)  34  -3
    X(3,5)  1  1723
    X(3,5)  15  1
    X(3,5)  18  -8
    X(3,5)  36  1
    X(3,5)  39  -18
    X(3,5)  45  -3
    X(3,6)  1  214
    X(3,6)  19  3
    X(3,6)  50  -18
    X(3,6)  56  -3
    X(3,7)  1  168
    X(3,7)  15  1
    X(3,7)  20  -11
    X(3,7)  58  1
    X(3,7)  61  -18
    X(3,7)  67  -3
    X(3,8)  1  250
    X(3,8)  15  1
    X(3,8)  21  -10
    X(3,8)  69  1
    X(3,8)  72  -18
    X(3,8)  78  -3
    X(4,1)  26  1
    X(4,2)  1  1019
    X(4,2)  3  1
    X(4,2)  6  -18
    X(4,2)  12  -7
    X(4,2)  26  1
    X(4,2)  27  -5
    X(4,3)  1  1747
    X(4,3)  14  1
    X(4,3)  17  -18
    X(4,3)  23  -7
    X(4,3)  26  1
    X(4,3)  28  -8
    X(4,5)  1  710
    X(4,5)  26  1
    X(4,5)  29  -4
    X(4,5)  36  1
    X(4,5)  40  -18
    X(4,5)  45  -7
    X(4,6)  1  1538
    X(4,6)  30  7
    X(4,6)  51  -18
    X(4,6)  56  -7
    X(4,7)  1  1904
    X(4,7)  26  1
    X(4,7)  31  -7
    X(4,7)  58  1
    X(4,7)  62  -18
    X(4,7)  67  -7
    X(4,8)  1  1528
    X(4,8)  26  1
    X(4,8)  32  -6
    X(4,8)  69  1
    X(4,8)  73  -18
    X(4,8)  78  -7
    X(5,1)  37  1
    X(5,2)  1  596
    X(5,2)  3  1
    X(5,2)  7  -18
    X(5,2)  12  -7
    X(5,2)  37  1
    X(5,2)  38  -5
    X(5,3)  1  1723
    X(5,3)  14  1
    X(5,3)  18  -18
    X(5,3)  23  -7
    X(5,3)  37  1
    X(5,3)  39  -8
    X(5,4)  1  710
    X(5,4)  25  1
    X(5,4)  29  -18
    X(5,4)  34  -7
    X(5,4)  37  1
    X(5,4)  40  -4
    X(5,6)  1  1589
    X(5,6)  41  7
    X(5,6)  52  -18
    X(5,6)  56  -7
    X(5,7)  1  1827
    X(5,7)  37  1
    X(5,7)  42  -7
    X(5,7)  58  1
    X(5,7)  63  -18
    X(5,7)  67  -7
    X(5,8)  1  1579
    X(5,8)  37  1
    X(5,8)  43  -6
    X(5,8)  69  1
    X(5,8)  74  -18
    X(5,8)  78  -7
    X(6,2)  1  1059
    X(6,2)  8  -18
    X(6,2)  12  -18
    X(6,2)  49  6
    X(6,3)  1  214
    X(6,3)  19  -18
    X(6,3)  23  -18
    X(6,3)  50  3
    X(6,4)  1  1538
    X(6,4)  30  -18
    X(6,4)  34  -18
    X(6,4)  51  7
    X(6,5)  1  1589
    X(6,5)  41  -18
    X(6,5)  45  -18
    X(6,5)  52  7
    X(6,7)  1  371
    X(6,7)  53  4
    X(6,7)  64  -18
    X(6,7)  67  -18
    X(6,8)  1  36
    X(6,8)  54  5
    X(6,8)  75  -18
    X(6,8)  78  -18
    X(7,1)  59  1
    X(7,2)  1  1227
    X(7,2)  3  1
    X(7,2)  9  -18
    X(7,2)  12  -4
    X(7,2)  59  1
    X(7,2)  60  -8
    X(7,3)  1  168
    X(7,3)  14  1
    X(7,3)  20  -18
    X(7,3)  23  -4
    X(7,3)  59  1
    X(7,3)  61  -11
    X(7,4)  1  1904
    X(7,4)  25  1
    X(7,4)  31  -18
    X(7,4)  34  -4
    X(7,4)  59  1
    X(7,4)  62  -7
    X(7,5)  1  1827
    X(7,5)  36  1
    X(7,5)  42  -18
    X(7,5)  45  -4
    X(7,5)  59  1
    X(7,5)  63  -7
    X(7,6)  1  371
    X(7,6)  53  -18
    X(7,6)  56  -4
    X(7,6)  64  4
    X(7,8)  1  407
    X(7,8)  59  1
    X(7,8)  65  -9
    X(7,8)  69  1
    X(7,8)  76  -18
    X(7,8)  78  -4
    X(8,1)  70  1
    X(8,2)  1  1055
    X(8,2)  3  1
    X(8,2)  10  -18
    X(8,2)  12  -5
    X(8,2)  70  1
    X(8,2)  71  -7
    X(8,3)  1  250
    X(8,3)  14  1
    X(8,3)  21  -18
    X(8,3)  23  -5
    X(8,3)  70  1
    X(8,3)  72  -10
    X(8,4)  1  1528
    X(8,4)  25  1
    X(8,4)  32  -18
    X(8,4)  34  -5
    X(8,4)  70  1
    X(8,4)  73  -6
    X(8,5)  1  1579
    X(8,5)  36  1
    X(8,5)  43  -18
    X(8,5)  45  -5
    X(8,5)  70  1
    X(8,5)  74  -6
    X(8,6)  1  36
    X(8,6)  54  -18
    X(8,6)  56  -5
    X(8,6)  75  5
    X(8,7)  1  407
    X(8,7)  58  1
    X(8,7)  65  -18
    X(8,7)  67  -5
    X(8,7)  70  1
    X(8,7)  76  -9
    U(1)  1  0
    U(2)  5  1
    U(2)  6  1
    U(2)  7  1
    U(2)  8  1
    U(2)  9  1
    U(2)  10  1
    U(2)  11  1
    U(2)  12  1
    U(2)  16  -1
    U(2)  27  -1
    U(2)  38  -1
    U(2)  49  -1
    U(2)  60  -1
    U(2)  71  -1
    U(3)  5  -1
    U(3)  16  1
    U(3)  17  1
    U(3)  18  1
    U(3)  19  1
    U(3)  20  1
    U(3)  21  1
    U(3)  22  1
    U(3)  23  1
    U(3)  28  -1
    U(3)  39  -1
    U(3)  50  -1
    U(3)  61  -1
    U(3)  72  -1
    U(4)  6  -1
    U(4)  17  -1
    U(4)  27  1
    U(4)  28  1
    U(4)  29  1
    U(4)  30  1
    U(4)  31  1
    U(4)  32  1
    U(4)  33  1
    U(4)  34  1
    U(4)  40  -1
    U(4)  51  -1
    U(4)  62  -1
    U(4)  73  -1
    U(5)  7  -1
    U(5)  18  -1
    U(5)  29  -1
    U(5)  38  1
    U(5)  39  1
    U(5)  40  1
    U(5)  41  1
    U(5)  42  1
    U(5)  43  1
    U(5)  44  1
    U(5)  45  1
    U(5)  52  -1
    U(5)  63  -1
    U(5)  74  -1
    U(6)  8  -1
    U(6)  19  -1
    U(6)  30  -1
    U(6)  41  -1
    U(6)  49  1
    U(6)  50  1
    U(6)  51  1
    U(6)  52  1
    U(6)  53  1
    U(6)  54  1
    U(6)  55  1
    U(6)  56  1
    U(6)  64  -1
    U(6)  75  -1
    U(7)  9  -1
    U(7)  20  -1
    U(7)  31  -1
    U(7)  42  -1
    U(7)  53  -1
    U(7)  60  1
    U(7)  61  1
    U(7)  62  1
    U(7)  63  1
    U(7)  64  1
    U(7)  65  1
    U(7)  66  1
    U(7)  67  1
    U(7)  76  -1
    U(8)  10  -1
    U(8)  21  -1
    U(8)  32  -1
    U(8)  43  -1
    U(8)  54  -1
    U(8)  65  -1
    U(8)  71  1
    U(8)  72  1
    U(8)  73  1
    U(8)  74  1
    U(8)  75  1
    U(8)  76  1
    U(8)  77  1
    U(8)  78  1
RHS
    RHS1      1  -2054
    RHS1      3  1
    RHS1      4  1
    RHS1      5  -12
    RHS1      6  -12
    RHS1      7  -12
    RHS1      8  -12
    RHS1      9  -12
    RHS1      10  -12
    RHS1      11  18
    RHS1      12  6
    RHS1      14  1
    RHS1      15  1
    RHS1      16  -15
    RHS1      17  -15
    RHS1      18  -15
    RHS1      19  -15
    RHS1      20  -15
    RHS1      21  -15
    RHS1      22  18
    RHS1      23  3
    RHS1      25  1
    RHS1      26  1
    RHS1      27  -11
    RHS1      28  -11
    RHS1      29  -11
    RHS1      30  -11
    RHS1      31  -11
    RHS1      32  -11
    RHS1      33  18
    RHS1      34  7
    RHS1      36  1
    RHS1      37  1
    RHS1      38  -11
    RHS1      39  -11
    RHS1      40  -11
    RHS1      41  -11
    RHS1      42  -11
    RHS1      43  -11
    RHS1      44  18
    RHS1      45  7
    RHS1      55  18
    RHS1      56  18
    RHS1      58  1
    RHS1      59  1
    RHS1      60  -14
    RHS1      61  -14
    RHS1      62  -14
    RHS1      63  -14
    RHS1      64  -14
    RHS1      65  -14
    RHS1      66  18
    RHS1      67  4
    RHS1      69  1
    RHS1      70  1
    RHS1      71  -13
    RHS1      72  -13
    RHS1      73  -13
    RHS1      74  -13
    RHS1      75  -13
    RHS1      76  -13
    RHS1      77  18
    RHS1      78  5
    RHS1      81  1.9999999999999996
BOUNDS
 BV BND1      X(1,1)
 BV BND1      X(1,2)
 BV BND1      X(1,3)
 BV BND1      X(1,4)
 BV BND1      X(1,5)
 BV BND1      X(1,7)
 BV BND1      X(1,8)
 BV BND1      X(2,1)
 BV BND1      X(2,3)
 BV BND1      X(2,4)
 BV BND1      X(2,5)
 BV BND1      X(2,6)
 BV BND1      X(2,7)
 BV BND1      X(2,8)
 BV BND1      X(3,1)
 BV BND1      X(3,2)
 BV BND1      X(3,4)
 BV BND1      X(3,5)
 BV BND1      X(3,6)
 BV BND1      X(3,7)
 BV BND1      X(3,8)
 BV BND1      X(4,1)
 BV BND1      X(4,2)
 BV BND1      X(4,3)
 BV BND1      X(4,5)
 BV BND1      X(4,6)
 BV BND1      X(4,7)
 BV BND1      X(4,8)
 BV BND1      X(5,1)
 BV BND1      X(5,2)
 BV BND1      X(5,3)
 BV BND1      X(5,4)
 BV BND1      X(5,6)
 BV BND1      X(5,7)
 BV BND1      X(5,8)
 BV BND1      X(6,2)
 BV BND1      X(6,3)
 BV BND1      X(6,4)
 BV BND1      X(6,5)
 BV BND1      X(6,7)
 BV BND1      X(6,8)
 BV BND1      X(7,1)
 BV BND1      X(7,2)
 BV BND1      X(7,3)
 BV BND1      X(7,4)
 BV BND1      X(7,5)
 BV BND1      X(7,6)
 BV BND1      X(7,8)
 BV BND1      X(8,1)
 BV BND1      X(8,2)
 BV BND1      X(8,3)
 BV BND1      X(8,4)
 BV BND1      X(8,5)
 BV BND1      X(8,6)
 BV BND1      X(8,7)
 LO BND1      U(2)  6
 UP BND1      U(2)  18
 LO BND1      U(3)  3
 UP BND1      U(3)  18
 LO BND1      U(4)  7
 UP BND1      U(4)  18
 LO BND1      U(5)  7
 UP BND1      U(5)  18
 FX BND1      U(6)  18
 LO BND1      U(7)  4
 UP BND1      U(7)  18
 LO BND1      U(8)  5
 UP BND1      U(8)  18
ENDATA
